1938
32
7046
8880
3207
405
1919
354
932
952
695
2164
2849
3011
17
132
2149
1641
1766
1733
0
48
975
82
3148
210
135
27
656
1489
1047
499
2068
534
445
16
214
313
4385
738
4523
816
4515
738
3516
819
193
170
798
3233
6546
1690
583
766
7065
4962
56
350
1643
898
293
426
346
55
4764
0
45
1629
3048
162
10945
2880
1288
1047
176
4822
568
54
759
76
2088
233
154
4758
1896
52
1998
1791
2026
12209
3202
3214
56
1932
3244
4441
4917
2262
2878
991
